(set-logic QF_S)
(declare-fun var_0xINPUT_468093 () String)
(assert (and (= (len var_0xINPUT_468093) 0) (= (len var_0xINPUT_468093) 0) (not (= var_0xINPUT_468093 "ND6MEXdqBD"))))
(check-sat var_0xINPUT_468093)